c description: Graph pigeonhole principle formula on fast_gnp_random_graph(10,25,0.9)
c generator: CNFgen (0.9.0)
c copyright: (C) 2012-2020 Massimo Lauria <massimo.lauria@uniroma1.it>
c url: https://massimolauria.net/cnfgen
c
p cnf 224 911
1 2 3 4 5 6 7 8 9 10 11 12 13 14 15 16 17 18 19 20 0
21 22 23 24 25 26 27 28 29 30 31 32 33 34 35 36 37 38 39 40 41 42 43 0
44 45 46 47 48 49 50 51 52 53 54 55 56 57 58 59 60 61 62 63 64 65 66 67 0
68 69 70 71 72 73 74 75 76 77 78 79 80 81 82 83 84 85 86 87 88 89 90 91 0
92 93 94 95 96 97 98 99 100 101 102 103 104 105 106 107 108 109 110 111 112 113 114 115 0
116 117 118 119 120 121 122 123 124 125 126 127 128 129 130 131 132 133 134 135 0
136 137 138 139 140 141 142 143 144 145 146 147 148 149 150 151 152 153 154 155 156 0
157 158 159 160 161 162 163 164 165 166 167 168 169 170 171 172 173 174 175 176 177 178 0
179 180 181 182 183 184 185 186 187 188 189 190 191 192 193 194 195 196 197 198 199 200 201 0
202 203 204 205 206 207 208 209 210 211 212 213 214 215 216 217 218 219 220 221 222 223 224 0
-1 -21 0
-1 -44 0
-1 -68 0
-1 -92 0
-1 -116 0
-1 -136 0
-1 -157 0
-1 -202 0
-21 -44 0
-21 -68 0
-21 -92 0
-21 -116 0
-21 -136 0
-21 -157 0
-21 -202 0
-44 -68 0
-44 -92 0
-44 -116 0
-44 -136 0
-44 -157 0
-44 -202 0
-68 -92 0
-68 -116 0
-68 -136 0
-68 -157 0
-68 -202 0
-92 -116 0
-92 -136 0
-92 -157 0
-92 -202 0
-116 -136 0
-116 -157 0
-116 -202 0
-136 -157 0
-136 -202 0
-157 -202 0
-22 -45 0
-22 -69 0
-22 -93 0
-22 -117 0
-22 -137 0
-22 -158 0
-22 -179 0
-22 -203 0
-45 -69 0
-45 -93 0
-45 -117 0
-45 -137 0
-45 -158 0
-45 -179 0
-45 -203 0
-69 -93 0
-69 -117 0
-69 -137 0
-69 -158 0
-69 -179 0
-69 -203 0
-93 -117 0
-93 -137 0
-93 -158 0
-93 -179 0
-93 -203 0
-117 -137 0
-117 -158 0
-117 -179 0
-117 -203 0
-137 -158 0
-137 -179 0
-137 -203 0
-158 -179 0
-158 -203 0
-179 -203 0
-23 -46 0
-23 -70 0
-23 -94 0
-23 -138 0
-23 -159 0
-23 -180 0
-23 -204 0
-46 -70 0
-46 -94 0
-46 -138 0
-46 -159 0
-46 -180 0
-46 -204 0
-70 -94 0
-70 -138 0
-70 -159 0
-70 -180 0
-70 -204 0
-94 -138 0
-94 -159 0
-94 -180 0
-94 -204 0
-138 -159 0
-138 -180 0
-138 -204 0
-159 -180 0
-159 -204 0
-180 -204 0
-24 -47 0
-24 -71 0
-24 -95 0
-24 -118 0
-24 -139 0
-24 -160 0
-24 -205 0
-47 -71 0
-47 -95 0
-47 -118 0
-47 -139 0
-47 -160 0
-47 -205 0
-71 -95 0
-71 -118 0
-71 -139 0
-71 -160 0
-71 -205 0
-95 -118 0
-95 -139 0
-95 -160 0
-95 -205 0
-118 -139 0
-118 -160 0
-118 -205 0
-139 -160 0
-139 -205 0
-160 -205 0
-2 -25 0
-2 -48 0
-2 -72 0
-2 -96 0
-2 -119 0
-2 -140 0
-2 -161 0
-2 -181 0
-2 -206 0
-25 -48 0
-25 -72 0
-25 -96 0
-25 -119 0
-25 -140 0
-25 -161 0
-25 -181 0
-25 -206 0
-48 -72 0
-48 -96 0
-48 -119 0
-48 -140 0
-48 -161 0
-48 -181 0
-48 -206 0
-72 -96 0
-72 -119 0
-72 -140 0
-72 -161 0
-72 -181 0
-72 -206 0
-96 -119 0
-96 -140 0
-96 -161 0
-96 -181 0
-96 -206 0
-119 -140 0
-119 -161 0
-119 -181 0
-119 -206 0
-140 -161 0
-140 -181 0
-140 -206 0
-161 -181 0
-161 -206 0
-181 -206 0
-3 -26 0
-3 -49 0
-3 -73 0
-3 -97 0
-3 -120 0
-3 -141 0
-3 -162 0
-3 -182 0
-3 -207 0
-26 -49 0
-26 -73 0
-26 -97 0
-26 -120 0
-26 -141 0
-26 -162 0
-26 -182 0
-26 -207 0
-49 -73 0
-49 -97 0
-49 -120 0
-49 -141 0
-49 -162 0
-49 -182 0
-49 -207 0
-73 -97 0
-73 -120 0
-73 -141 0
-73 -162 0
-73 -182 0
-73 -207 0
-97 -120 0
-97 -141 0
-97 -162 0
-97 -182 0
-97 -207 0
-120 -141 0
-120 -162 0
-120 -182 0
-120 -207 0
-141 -162 0
-141 -182 0
-141 -207 0
-162 -182 0
-162 -207 0
-182 -207 0
-4 -27 0
-4 -50 0
-4 -74 0
-4 -98 0
-4 -121 0
-4 -142 0
-4 -163 0
-4 -183 0
-4 -208 0
-27 -50 0
-27 -74 0
-27 -98 0
-27 -121 0
-27 -142 0
-27 -163 0
-27 -183 0
-27 -208 0
-50 -74 0
-50 -98 0
-50 -121 0
-50 -142 0
-50 -163 0
-50 -183 0
-50 -208 0
-74 -98 0
-74 -121 0
-74 -142 0
-74 -163 0
-74 -183 0
-74 -208 0
-98 -121 0
-98 -142 0
-98 -163 0
-98 -183 0
-98 -208 0
-121 -142 0
-121 -163 0
-121 -183 0
-121 -208 0
-142 -163 0
-142 -183 0
-142 -208 0
-163 -183 0
-163 -208 0
-183 -208 0
-5 -28 0
-5 -51 0
-5 -75 0
-5 -99 0
-5 -122 0
-5 -143 0
-5 -184 0
-5 -209 0
-28 -51 0
-28 -75 0
-28 -99 0
-28 -122 0
-28 -143 0
-28 -184 0
-28 -209 0
-51 -75 0
-51 -99 0
-51 -122 0
-51 -143 0
-51 -184 0
-51 -209 0
-75 -99 0
-75 -122 0
-75 -143 0
-75 -184 0
-75 -209 0
-99 -122 0
-99 -143 0
-99 -184 0
-99 -209 0
-122 -143 0
-122 -184 0
-122 -209 0
-143 -184 0
-143 -209 0
-184 -209 0
-6 -29 0
-6 -52 0
-6 -76 0
-6 -100 0
-6 -123 0
-6 -144 0
-6 -185 0
-6 -210 0
-29 -52 0
-29 -76 0
-29 -100 0
-29 -123 0
-29 -144 0
-29 -185 0
-29 -210 0
-52 -76 0
-52 -100 0
-52 -123 0
-52 -144 0
-52 -185 0
-52 -210 0
-76 -100 0
-76 -123 0
-76 -144 0
-76 -185 0
-76 -210 0
-100 -123 0
-100 -144 0
-100 -185 0
-100 -210 0
-123 -144 0
-123 -185 0
-123 -210 0
-144 -185 0
-144 -210 0
-185 -210 0
-7 -30 0
-7 -53 0
-7 -77 0
-7 -101 0
-7 -145 0
-7 -164 0
-7 -186 0
-7 -211 0
-30 -53 0
-30 -77 0
-30 -101 0
-30 -145 0
-30 -164 0
-30 -186 0
-30 -211 0
-53 -77 0
-53 -101 0
-53 -145 0
-53 -164 0
-53 -186 0
-53 -211 0
-77 -101 0
-77 -145 0
-77 -164 0
-77 -186 0
-77 -211 0
-101 -145 0
-101 -164 0
-101 -186 0
-101 -211 0
-145 -164 0
-145 -186 0
-145 -211 0
-164 -186 0
-164 -211 0
-186 -211 0
-31 -54 0
-31 -78 0
-31 -102 0
-31 -146 0
-31 -165 0
-31 -187 0
-31 -212 0
-54 -78 0
-54 -102 0
-54 -146 0
-54 -165 0
-54 -187 0
-54 -212 0
-78 -102 0
-78 -146 0
-78 -165 0
-78 -187 0
-78 -212 0
-102 -146 0
-102 -165 0
-102 -187 0
-102 -212 0
-146 -165 0
-146 -187 0
-146 -212 0
-165 -187 0
-165 -212 0
-187 -212 0
-8 -32 0
-8 -55 0
-8 -79 0
-8 -103 0
-8 -124 0
-8 -147 0
-8 -166 0
-8 -188 0
-8 -213 0
-32 -55 0
-32 -79 0
-32 -103 0
-32 -124 0
-32 -147 0
-32 -166 0
-32 -188 0
-32 -213 0
-55 -79 0
-55 -103 0
-55 -124 0
-55 -147 0
-55 -166 0
-55 -188 0
-55 -213 0
-79 -103 0
-79 -124 0
-79 -147 0
-79 -166 0
-79 -188 0
-79 -213 0
-103 -124 0
-103 -147 0
-103 -166 0
-103 -188 0
-103 -213 0
-124 -147 0
-124 -166 0
-124 -188 0
-124 -213 0
-147 -166 0
-147 -188 0
-147 -213 0
-166 -188 0
-166 -213 0
-188 -213 0
-33 -56 0
-33 -80 0
-33 -104 0
-33 -125 0
-33 -148 0
-33 -167 0
-33 -189 0
-56 -80 0
-56 -104 0
-56 -125 0
-56 -148 0
-56 -167 0
-56 -189 0
-80 -104 0
-80 -125 0
-80 -148 0
-80 -167 0
-80 -189 0
-104 -125 0
-104 -148 0
-104 -167 0
-104 -189 0
-125 -148 0
-125 -167 0
-125 -189 0
-148 -167 0
-148 -189 0
-167 -189 0
-9 -34 0
-9 -57 0
-9 -81 0
-9 -105 0
-9 -126 0
-9 -168 0
-9 -190 0
-9 -214 0
-34 -57 0
-34 -81 0
-34 -105 0
-34 -126 0
-34 -168 0
-34 -190 0
-34 -214 0
-57 -81 0
-57 -105 0
-57 -126 0
-57 -168 0
-57 -190 0
-57 -214 0
-81 -105 0
-81 -126 0
-81 -168 0
-81 -190 0
-81 -214 0
-105 -126 0
-105 -168 0
-105 -190 0
-105 -214 0
-126 -168 0
-126 -190 0
-126 -214 0
-168 -190 0
-168 -214 0
-190 -214 0
-10 -35 0
-10 -58 0
-10 -82 0
-10 -127 0
-10 -149 0
-10 -169 0
-10 -191 0
-10 -215 0
-35 -58 0
-35 -82 0
-35 -127 0
-35 -149 0
-35 -169 0
-35 -191 0
-35 -215 0
-58 -82 0
-58 -127 0
-58 -149 0
-58 -169 0
-58 -191 0
-58 -215 0
-82 -127 0
-82 -149 0
-82 -169 0
-82 -191 0
-82 -215 0
-127 -149 0
-127 -169 0
-127 -191 0
-127 -215 0
-149 -169 0
-149 -191 0
-149 -215 0
-169 -191 0
-169 -215 0
-191 -215 0
-11 -59 0
-11 -83 0
-11 -106 0
-11 -128 0
-11 -150 0
-11 -192 0
-11 -216 0
-59 -83 0
-59 -106 0
-59 -128 0
-59 -150 0
-59 -192 0
-59 -216 0
-83 -106 0
-83 -128 0
-83 -150 0
-83 -192 0
-83 -216 0
-106 -128 0
-106 -150 0
-106 -192 0
-106 -216 0
-128 -150 0
-128 -192 0
-128 -216 0
-150 -192 0
-150 -216 0
-192 -216 0
-12 -36 0
-12 -60 0
-12 -84 0
-12 -107 0
-12 -129 0
-12 -151 0
-12 -170 0
-12 -193 0
-12 -217 0
-36 -60 0
-36 -84 0
-36 -107 0
-36 -129 0
-36 -151 0
-36 -170 0
-36 -193 0
-36 -217 0
-60 -84 0
-60 -107 0
-60 -129 0
-60 -151 0
-60 -170 0
-60 -193 0
-60 -217 0
-84 -107 0
-84 -129 0
-84 -151 0
-84 -170 0
-84 -193 0
-84 -217 0
-107 -129 0
-107 -151 0
-107 -170 0
-107 -193 0
-107 -217 0
-129 -151 0
-129 -170 0
-129 -193 0
-129 -217 0
-151 -170 0
-151 -193 0
-151 -217 0
-170 -193 0
-170 -217 0
-193 -217 0
-13 -61 0
-13 -85 0
-13 -108 0
-13 -152 0
-13 -171 0
-13 -194 0
-13 -218 0
-61 -85 0
-61 -108 0
-61 -152 0
-61 -171 0
-61 -194 0
-61 -218 0
-85 -108 0
-85 -152 0
-85 -171 0
-85 -194 0
-85 -218 0
-108 -152 0
-108 -171 0
-108 -194 0
-108 -218 0
-152 -171 0
-152 -194 0
-152 -218 0
-171 -194 0
-171 -218 0
-194 -218 0
-14 -37 0
-14 -62 0
-14 -86 0
-14 -109 0
-14 -130 0
-14 -153 0
-14 -172 0
-14 -195 0
-14 -219 0
-37 -62 0
-37 -86 0
-37 -109 0
-37 -130 0
-37 -153 0
-37 -172 0
-37 -195 0
-37 -219 0
-62 -86 0
-62 -109 0
-62 -130 0
-62 -153 0
-62 -172 0
-62 -195 0
-62 -219 0
-86 -109 0
-86 -130 0
-86 -153 0
-86 -172 0
-86 -195 0
-86 -219 0
-109 -130 0
-109 -153 0
-109 -172 0
-109 -195 0
-109 -219 0
-130 -153 0
-130 -172 0
-130 -195 0
-130 -219 0
-153 -172 0
-153 -195 0
-153 -219 0
-172 -195 0
-172 -219 0
-195 -219 0
-15 -38 0
-15 -63 0
-15 -87 0
-15 -110 0
-15 -131 0
-15 -154 0
-15 -173 0
-15 -196 0
-15 -220 0
-38 -63 0
-38 -87 0
-38 -110 0
-38 -131 0
-38 -154 0
-38 -173 0
-38 -196 0
-38 -220 0
-63 -87 0
-63 -110 0
-63 -131 0
-63 -154 0
-63 -173 0
-63 -196 0
-63 -220 0
-87 -110 0
-87 -131 0
-87 -154 0
-87 -173 0
-87 -196 0
-87 -220 0
-110 -131 0
-110 -154 0
-110 -173 0
-110 -196 0
-110 -220 0
-131 -154 0
-131 -173 0
-131 -196 0
-131 -220 0
-154 -173 0
-154 -196 0
-154 -220 0
-173 -196 0
-173 -220 0
-196 -220 0
-16 -39 0
-16 -64 0
-16 -111 0
-16 -132 0
-16 -174 0
-16 -197 0
-16 -221 0
-39 -64 0
-39 -111 0
-39 -132 0
-39 -174 0
-39 -197 0
-39 -221 0
-64 -111 0
-64 -132 0
-64 -174 0
-64 -197 0
-64 -221 0
-111 -132 0
-111 -174 0
-111 -197 0
-111 -221 0
-132 -174 0
-132 -197 0
-132 -221 0
-174 -197 0
-174 -221 0
-197 -221 0
-17 -40 0
-17 -88 0
-17 -112 0
-17 -133 0
-17 -155 0
-17 -175 0
-17 -198 0
-17 -222 0
-40 -88 0
-40 -112 0
-40 -133 0
-40 -155 0
-40 -175 0
-40 -198 0
-40 -222 0
-88 -112 0
-88 -133 0
-88 -155 0
-88 -175 0
-88 -198 0
-88 -222 0
-112 -133 0
-112 -155 0
-112 -175 0
-112 -198 0
-112 -222 0
-133 -155 0
-133 -175 0
-133 -198 0
-133 -222 0
-155 -175 0
-155 -198 0
-155 -222 0
-175 -198 0
-175 -222 0
-198 -222 0
-18 -41 0
-18 -65 0
-18 -89 0
-18 -113 0
-18 -176 0
-18 -199 0
-41 -65 0
-41 -89 0
-41 -113 0
-41 -176 0
-41 -199 0
-65 -89 0
-65 -113 0
-65 -176 0
-65 -199 0
-89 -113 0
-89 -176 0
-89 -199 0
-113 -176 0
-113 -199 0
-176 -199 0
-19 -42 0
-19 -66 0
-19 -90 0
-19 -114 0
-19 -134 0
-19 -156 0
-19 -177 0
-19 -200 0
-19 -223 0
-42 -66 0
-42 -90 0
-42 -114 0
-42 -134 0
-42 -156 0
-42 -177 0
-42 -200 0
-42 -223 0
-66 -90 0
-66 -114 0
-66 -134 0
-66 -156 0
-66 -177 0
-66 -200 0
-66 -223 0
-90 -114 0
-90 -134 0
-90 -156 0
-90 -177 0
-90 -200 0
-90 -223 0
-114 -134 0
-114 -156 0
-114 -177 0
-114 -200 0
-114 -223 0
-134 -156 0
-134 -177 0
-134 -200 0
-134 -223 0
-156 -177 0
-156 -200 0
-156 -223 0
-177 -200 0
-177 -223 0
-200 -223 0
-20 -43 0
-20 -67 0
-20 -91 0
-20 -115 0
-20 -135 0
-20 -178 0
-20 -201 0
-20 -224 0
-43 -67 0
-43 -91 0
-43 -115 0
-43 -135 0
-43 -178 0
-43 -201 0
-43 -224 0
-67 -91 0
-67 -115 0
-67 -135 0
-67 -178 0
-67 -201 0
-67 -224 0
-91 -115 0
-91 -135 0
-91 -178 0
-91 -201 0
-91 -224 0
-115 -135 0
-115 -178 0
-115 -201 0
-115 -224 0
-135 -178 0
-135 -201 0
-135 -224 0
-178 -201 0
-178 -224 0
-201 -224 0